(set-logic QF_LRA)
(declare-fun T1 () Real )
(declare-fun T2 () Real )
(declare-fun T3 () Real )
(declare-fun T4 () Real )
(declare-fun T5 () Real )
(declare-fun T6 () Real )
(declare-fun T7 () Real )
(declare-fun T8 () Real )
(declare-fun T9 () Real )
(declare-fun T10 () Real )
(declare-fun Z () Real )
(assert ( and 
(or ( <= ( + T1 96 ) T2 ) ( <= ( + T2 91 ) T1 ) )
(or ( <= ( + T1 125 )  ( + T2 91 ) ) ( <= ( + T2 121 )( + T1 96 ) ) )
(or ( <= ( + T1 174 )  ( + T2 121 ) ) ( <= ( + T2 208 )( + T1 125 ) ) )
(or ( <= ( + T1 242 )  ( + T2 208 ) ) ( <= ( + T2 293 )( + T1 174 ) ) )
(or ( <= ( + T1 268 )  ( + T2 293 ) ) ( <= ( + T2 308 )( + T1 242 ) ) )
(or ( <= ( + T1 368 )  ( + T2 308 ) ) ( <= ( + T2 402 )( + T1 268 ) ) )
(or ( <= ( + T1 442 )  ( + T2 402 ) ) ( <= ( + T2 412 )( + T1 368 ) ) )
(or ( <= ( + T1 466 )  ( + T2 412 ) ) ( <= ( + T2 433 )( + T1 442 ) ) )
(or ( <= ( + T1 96 ) T3 ) ( <= ( + T3 40 ) T1 ) )
(or ( <= ( + T1 125 )  ( + T3 40 ) ) ( <= ( + T3 51 )( + T1 96 ) ) )
(or ( <= ( + T1 174 )  ( + T3 51 ) ) ( <= ( + T3 120 )( + T1 125 ) ) )
(or ( <= ( + T1 242 )  ( + T3 120 ) ) ( <= ( + T3 149 )( + T1 174 ) ) )
(or ( <= ( + T1 268 )  ( + T3 149 ) ) ( <= ( + T3 207 )( + T1 242 ) ) )
(or ( <= ( + T1 368 )  ( + T3 207 ) ) ( <= ( + T3 287 )( + T1 268 ) ) )
(or ( <= ( + T1 442 )  ( + T3 287 ) ) ( <= ( + T3 376 )( + T1 368 ) ) )
(or ( <= ( + T1 466 )  ( + T3 376 ) ) ( <= ( + T3 403 )( + T1 442 ) ) )
(or ( <= ( + T1 96 ) T4 ) ( <= ( + T4 33 ) T1 ) )
(or ( <= ( + T1 125 )  ( + T4 33 ) ) ( <= ( + T4 103 )( + T1 96 ) ) )
(or ( <= ( + T1 174 )  ( + T4 103 ) ) ( <= ( + T4 141 )( + T1 125 ) ) )
(or ( <= ( + T1 242 )  ( + T4 141 ) ) ( <= ( + T4 161 )( + T1 174 ) ) )
(or ( <= ( + T1 268 )  ( + T4 161 ) ) ( <= ( + T4 208 )( + T1 242 ) ) )
(or ( <= ( + T1 368 )  ( + T4 208 ) ) ( <= ( + T4 227 )( + T1 268 ) ) )
(or ( <= ( + T1 442 )  ( + T4 227 ) ) ( <= ( + T4 288 )( + T1 368 ) ) )
(or ( <= ( + T1 466 )  ( + T4 288 ) ) ( <= ( + T4 331 )( + T1 442 ) ) )
(or ( <= ( + T1 96 ) T5 ) ( <= ( + T5 47 ) T1 ) )
(or ( <= ( + T1 125 )  ( + T5 47 ) ) ( <= ( + T5 108 )( + T1 96 ) ) )
(or ( <= ( + T1 174 )  ( + T5 108 ) ) ( <= ( + T5 118 )( + T1 125 ) ) )
(or ( <= ( + T1 242 )  ( + T5 118 ) ) ( <= ( + T5 143 )( + T1 174 ) ) )
(or ( <= ( + T1 268 )  ( + T5 143 ) ) ( <= ( + T5 155 )( + T1 242 ) ) )
(or ( <= ( + T1 368 )  ( + T5 155 ) ) ( <= ( + T5 191 )( + T1 268 ) ) )
(or ( <= ( + T1 442 )  ( + T5 191 ) ) ( <= ( + T5 239 )( + T1 368 ) ) )
(or ( <= ( + T1 466 )  ( + T5 239 ) ) ( <= ( + T5 242 )( + T1 442 ) ) )
(or ( <= ( + T1 96 ) T6 ) ( <= ( + T6 65 ) T1 ) )
(or ( <= ( + T1 125 )  ( + T6 65 ) ) ( <= ( + T6 151 )( + T1 96 ) ) )
(or ( <= ( + T1 174 )  ( + T6 151 ) ) ( <= ( + T6 190 )( + T1 125 ) ) )
(or ( <= ( + T1 242 )  ( + T6 190 ) ) ( <= ( + T6 221 )( + T1 174 ) ) )
(or ( <= ( + T1 268 )  ( + T6 221 ) ) ( <= ( + T6 300 )( + T1 242 ) ) )
(or ( <= ( + T1 368 )  ( + T6 300 ) ) ( <= ( + T6 348 )( + T1 268 ) ) )
(or ( <= ( + T1 442 )  ( + T6 348 ) ) ( <= ( + T6 399 )( + T1 368 ) ) )
(or ( <= ( + T1 466 )  ( + T6 399 ) ) ( <= ( + T6 418 )( + T1 442 ) ) )
(or ( <= ( + T1 96 ) T7 ) ( <= ( + T7 10 ) T1 ) )
(or ( <= ( + T1 125 )  ( + T7 10 ) ) ( <= ( + T7 82 )( + T1 96 ) ) )
(or ( <= ( + T1 174 )  ( + T7 82 ) ) ( <= ( + T7 181 )( + T1 125 ) ) )
(or ( <= ( + T1 242 )  ( + T7 181 ) ) ( <= ( + T7 248 )( + T1 174 ) ) )
(or ( <= ( + T1 268 )  ( + T7 248 ) ) ( <= ( + T7 251 )( + T1 242 ) ) )
(or ( <= ( + T1 368 )  ( + T7 251 ) ) ( <= ( + T7 290 )( + T1 268 ) ) )
(or ( <= ( + T1 442 )  ( + T7 290 ) ) ( <= ( + T7 383 )( + T1 368 ) ) )
(or ( <= ( + T1 466 )  ( + T7 383 ) ) ( <= ( + T7 418 )( + T1 442 ) ) )
(or ( <= ( + T1 96 ) T8 ) ( <= ( + T8 61 ) T1 ) )
(or ( <= ( + T1 125 )  ( + T8 61 ) ) ( <= ( + T8 91 )( + T1 96 ) ) )
(or ( <= ( + T1 174 )  ( + T8 91 ) ) ( <= ( + T8 145 )( + T1 125 ) ) )
(or ( <= ( + T1 242 )  ( + T8 145 ) ) ( <= ( + T8 152 )( + T1 174 ) ) )
(or ( <= ( + T1 268 )  ( + T8 152 ) ) ( <= ( + T8 200 )( + T1 242 ) ) )
(or ( <= ( + T1 368 )  ( + T8 200 ) ) ( <= ( + T8 267 )( + T1 268 ) ) )
(or ( <= ( + T1 442 )  ( + T8 267 ) ) ( <= ( + T8 268 )( + T1 368 ) ) )
(or ( <= ( + T1 466 )  ( + T8 268 ) ) ( <= ( + T8 315 )( + T1 442 ) ) )
(or ( <= ( + T1 96 ) T9 ) ( <= ( + T9 27 ) T1 ) )
(or ( <= ( + T1 125 )  ( + T9 27 ) ) ( <= ( + T9 38 )( + T1 96 ) ) )
(or ( <= ( + T1 174 )  ( + T9 38 ) ) ( <= ( + T9 109 )( + T1 125 ) ) )
(or ( <= ( + T1 242 )  ( + T9 109 ) ) ( <= ( + T9 200 )( + T1 174 ) ) )
(or ( <= ( + T1 268 )  ( + T9 200 ) ) ( <= ( + T9 246 )( + T1 242 ) ) )
(or ( <= ( + T1 368 )  ( + T9 246 ) ) ( <= ( + T9 316 )( + T1 268 ) ) )
(or ( <= ( + T1 442 )  ( + T9 316 ) ) ( <= ( + T9 409 )( + T1 368 ) ) )
(or ( <= ( + T1 466 )  ( + T9 409 ) ) ( <= ( + T9 471 )( + T1 442 ) ) )
(or ( <= ( + T1 96 ) T10 ) ( <= ( + T10 56 ) T1 ) )
(or ( <= ( + T1 125 )  ( + T10 56 ) ) ( <= ( + T10 139 )( + T1 96 ) ) )
(or ( <= ( + T1 174 )  ( + T10 139 ) ) ( <= ( + T10 232 )( + T1 125 ) ) )
(or ( <= ( + T1 242 )  ( + T10 232 ) ) ( <= ( + T10 266 )( + T1 174 ) ) )
(or ( <= ( + T1 268 )  ( + T10 266 ) ) ( <= ( + T10 296 )( + T1 242 ) ) )
(or ( <= ( + T1 368 )  ( + T10 296 ) ) ( <= ( + T10 391 )( + T1 268 ) ) )
(or ( <= ( + T1 442 )  ( + T10 391 ) ) ( <= ( + T10 443 )( + T1 368 ) ) )
(or ( <= ( + T1 466 )  ( + T10 443 ) ) ( <= ( + T10 482 )( + T1 442 ) ) )
(or ( <= ( + T2 91 ) T3 ) ( <= ( + T3 40 ) T2 ) )
(or ( <= ( + T2 121 )  ( + T3 40 ) ) ( <= ( + T3 51 )( + T2 91 ) ) )
(or ( <= ( + T2 208 )  ( + T3 51 ) ) ( <= ( + T3 120 )( + T2 121 ) ) )
(or ( <= ( + T2 293 )  ( + T3 120 ) ) ( <= ( + T3 149 )( + T2 208 ) ) )
(or ( <= ( + T2 308 )  ( + T3 149 ) ) ( <= ( + T3 207 )( + T2 293 ) ) )
(or ( <= ( + T2 402 )  ( + T3 207 ) ) ( <= ( + T3 287 )( + T2 308 ) ) )
(or ( <= ( + T2 412 )  ( + T3 287 ) ) ( <= ( + T3 376 )( + T2 402 ) ) )
(or ( <= ( + T2 433 )  ( + T3 376 ) ) ( <= ( + T3 403 )( + T2 412 ) ) )
(or ( <= ( + T2 91 ) T4 ) ( <= ( + T4 33 ) T2 ) )
(or ( <= ( + T2 121 )  ( + T4 33 ) ) ( <= ( + T4 103 )( + T2 91 ) ) )
(or ( <= ( + T2 208 )  ( + T4 103 ) ) ( <= ( + T4 141 )( + T2 121 ) ) )
(or ( <= ( + T2 293 )  ( + T4 141 ) ) ( <= ( + T4 161 )( + T2 208 ) ) )
(or ( <= ( + T2 308 )  ( + T4 161 ) ) ( <= ( + T4 208 )( + T2 293 ) ) )
(or ( <= ( + T2 402 )  ( + T4 208 ) ) ( <= ( + T4 227 )( + T2 308 ) ) )
(or ( <= ( + T2 412 )  ( + T4 227 ) ) ( <= ( + T4 288 )( + T2 402 ) ) )
(or ( <= ( + T2 433 )  ( + T4 288 ) ) ( <= ( + T4 331 )( + T2 412 ) ) )
(or ( <= ( + T2 91 ) T5 ) ( <= ( + T5 47 ) T2 ) )
(or ( <= ( + T2 121 )  ( + T5 47 ) ) ( <= ( + T5 108 )( + T2 91 ) ) )
(or ( <= ( + T2 208 )  ( + T5 108 ) ) ( <= ( + T5 118 )( + T2 121 ) ) )
(or ( <= ( + T2 293 )  ( + T5 118 ) ) ( <= ( + T5 143 )( + T2 208 ) ) )
(or ( <= ( + T2 308 )  ( + T5 143 ) ) ( <= ( + T5 155 )( + T2 293 ) ) )
(or ( <= ( + T2 402 )  ( + T5 155 ) ) ( <= ( + T5 191 )( + T2 308 ) ) )
(or ( <= ( + T2 412 )  ( + T5 191 ) ) ( <= ( + T5 239 )( + T2 402 ) ) )
(or ( <= ( + T2 433 )  ( + T5 239 ) ) ( <= ( + T5 242 )( + T2 412 ) ) )
(or ( <= ( + T2 91 ) T6 ) ( <= ( + T6 65 ) T2 ) )
(or ( <= ( + T2 121 )  ( + T6 65 ) ) ( <= ( + T6 151 )( + T2 91 ) ) )
(or ( <= ( + T2 208 )  ( + T6 151 ) ) ( <= ( + T6 190 )( + T2 121 ) ) )
(or ( <= ( + T2 293 )  ( + T6 190 ) ) ( <= ( + T6 221 )( + T2 208 ) ) )
(or ( <= ( + T2 308 )  ( + T6 221 ) ) ( <= ( + T6 300 )( + T2 293 ) ) )
(or ( <= ( + T2 402 )  ( + T6 300 ) ) ( <= ( + T6 348 )( + T2 308 ) ) )
(or ( <= ( + T2 412 )  ( + T6 348 ) ) ( <= ( + T6 399 )( + T2 402 ) ) )
(or ( <= ( + T2 433 )  ( + T6 399 ) ) ( <= ( + T6 418 )( + T2 412 ) ) )
(or ( <= ( + T2 91 ) T7 ) ( <= ( + T7 10 ) T2 ) )
(or ( <= ( + T2 121 )  ( + T7 10 ) ) ( <= ( + T7 82 )( + T2 91 ) ) )
(or ( <= ( + T2 208 )  ( + T7 82 ) ) ( <= ( + T7 181 )( + T2 121 ) ) )
(or ( <= ( + T2 293 )  ( + T7 181 ) ) ( <= ( + T7 248 )( + T2 208 ) ) )
(or ( <= ( + T2 308 )  ( + T7 248 ) ) ( <= ( + T7 251 )( + T2 293 ) ) )
(or ( <= ( + T2 402 )  ( + T7 251 ) ) ( <= ( + T7 290 )( + T2 308 ) ) )
(or ( <= ( + T2 412 )  ( + T7 290 ) ) ( <= ( + T7 383 )( + T2 402 ) ) )
(or ( <= ( + T2 433 )  ( + T7 383 ) ) ( <= ( + T7 418 )( + T2 412 ) ) )
(or ( <= ( + T2 91 ) T8 ) ( <= ( + T8 61 ) T2 ) )
(or ( <= ( + T2 121 )  ( + T8 61 ) ) ( <= ( + T8 91 )( + T2 91 ) ) )
(or ( <= ( + T2 208 )  ( + T8 91 ) ) ( <= ( + T8 145 )( + T2 121 ) ) )
(or ( <= ( + T2 293 )  ( + T8 145 ) ) ( <= ( + T8 152 )( + T2 208 ) ) )
(or ( <= ( + T2 308 )  ( + T8 152 ) ) ( <= ( + T8 200 )( + T2 293 ) ) )
(or ( <= ( + T2 402 )  ( + T8 200 ) ) ( <= ( + T8 267 )( + T2 308 ) ) )
(or ( <= ( + T2 412 )  ( + T8 267 ) ) ( <= ( + T8 268 )( + T2 402 ) ) )
(or ( <= ( + T2 433 )  ( + T8 268 ) ) ( <= ( + T8 315 )( + T2 412 ) ) )
(or ( <= ( + T2 91 ) T9 ) ( <= ( + T9 27 ) T2 ) )
(or ( <= ( + T2 121 )  ( + T9 27 ) ) ( <= ( + T9 38 )( + T2 91 ) ) )
(or ( <= ( + T2 208 )  ( + T9 38 ) ) ( <= ( + T9 109 )( + T2 121 ) ) )
(or ( <= ( + T2 293 )  ( + T9 109 ) ) ( <= ( + T9 200 )( + T2 208 ) ) )
(or ( <= ( + T2 308 )  ( + T9 200 ) ) ( <= ( + T9 246 )( + T2 293 ) ) )
(or ( <= ( + T2 402 )  ( + T9 246 ) ) ( <= ( + T9 316 )( + T2 308 ) ) )
(or ( <= ( + T2 412 )  ( + T9 316 ) ) ( <= ( + T9 409 )( + T2 402 ) ) )
(or ( <= ( + T2 433 )  ( + T9 409 ) ) ( <= ( + T9 471 )( + T2 412 ) ) )
(or ( <= ( + T2 91 ) T10 ) ( <= ( + T10 56 ) T2 ) )
(or ( <= ( + T2 121 )  ( + T10 56 ) ) ( <= ( + T10 139 )( + T2 91 ) ) )
(or ( <= ( + T2 208 )  ( + T10 139 ) ) ( <= ( + T10 232 )( + T2 121 ) ) )
(or ( <= ( + T2 293 )  ( + T10 232 ) ) ( <= ( + T10 266 )( + T2 208 ) ) )
(or ( <= ( + T2 308 )  ( + T10 266 ) ) ( <= ( + T10 296 )( + T2 293 ) ) )
(or ( <= ( + T2 402 )  ( + T10 296 ) ) ( <= ( + T10 391 )( + T2 308 ) ) )
(or ( <= ( + T2 412 )  ( + T10 391 ) ) ( <= ( + T10 443 )( + T2 402 ) ) )
(or ( <= ( + T2 433 )  ( + T10 443 ) ) ( <= ( + T10 482 )( + T2 412 ) ) )
(or ( <= ( + T3 40 ) T4 ) ( <= ( + T4 33 ) T3 ) )
(or ( <= ( + T3 51 )  ( + T4 33 ) ) ( <= ( + T4 103 )( + T3 40 ) ) )
(or ( <= ( + T3 120 )  ( + T4 103 ) ) ( <= ( + T4 141 )( + T3 51 ) ) )
(or ( <= ( + T3 149 )  ( + T4 141 ) ) ( <= ( + T4 161 )( + T3 120 ) ) )
(or ( <= ( + T3 207 )  ( + T4 161 ) ) ( <= ( + T4 208 )( + T3 149 ) ) )
(or ( <= ( + T3 287 )  ( + T4 208 ) ) ( <= ( + T4 227 )( + T3 207 ) ) )
(or ( <= ( + T3 376 )  ( + T4 227 ) ) ( <= ( + T4 288 )( + T3 287 ) ) )
(or ( <= ( + T3 403 )  ( + T4 288 ) ) ( <= ( + T4 331 )( + T3 376 ) ) )
(or ( <= ( + T3 40 ) T5 ) ( <= ( + T5 47 ) T3 ) )
(or ( <= ( + T3 51 )  ( + T5 47 ) ) ( <= ( + T5 108 )( + T3 40 ) ) )
(or ( <= ( + T3 120 )  ( + T5 108 ) ) ( <= ( + T5 118 )( + T3 51 ) ) )
(or ( <= ( + T3 149 )  ( + T5 118 ) ) ( <= ( + T5 143 )( + T3 120 ) ) )
(or ( <= ( + T3 207 )  ( + T5 143 ) ) ( <= ( + T5 155 )( + T3 149 ) ) )
(or ( <= ( + T3 287 )  ( + T5 155 ) ) ( <= ( + T5 191 )( + T3 207 ) ) )
(or ( <= ( + T3 376 )  ( + T5 191 ) ) ( <= ( + T5 239 )( + T3 287 ) ) )
(or ( <= ( + T3 403 )  ( + T5 239 ) ) ( <= ( + T5 242 )( + T3 376 ) ) )
(or ( <= ( + T3 40 ) T6 ) ( <= ( + T6 65 ) T3 ) )
(or ( <= ( + T3 51 )  ( + T6 65 ) ) ( <= ( + T6 151 )( + T3 40 ) ) )
(or ( <= ( + T3 120 )  ( + T6 151 ) ) ( <= ( + T6 190 )( + T3 51 ) ) )
(or ( <= ( + T3 149 )  ( + T6 190 ) ) ( <= ( + T6 221 )( + T3 120 ) ) )
(or ( <= ( + T3 207 )  ( + T6 221 ) ) ( <= ( + T6 300 )( + T3 149 ) ) )
(or ( <= ( + T3 287 )  ( + T6 300 ) ) ( <= ( + T6 348 )( + T3 207 ) ) )
(or ( <= ( + T3 376 )  ( + T6 348 ) ) ( <= ( + T6 399 )( + T3 287 ) ) )
(or ( <= ( + T3 403 )  ( + T6 399 ) ) ( <= ( + T6 418 )( + T3 376 ) ) )
(or ( <= ( + T3 40 ) T7 ) ( <= ( + T7 10 ) T3 ) )
(or ( <= ( + T3 51 )  ( + T7 10 ) ) ( <= ( + T7 82 )( + T3 40 ) ) )
(or ( <= ( + T3 120 )  ( + T7 82 ) ) ( <= ( + T7 181 )( + T3 51 ) ) )
(or ( <= ( + T3 149 )  ( + T7 181 ) ) ( <= ( + T7 248 )( + T3 120 ) ) )
(or ( <= ( + T3 207 )  ( + T7 248 ) ) ( <= ( + T7 251 )( + T3 149 ) ) )
(or ( <= ( + T3 287 )  ( + T7 251 ) ) ( <= ( + T7 290 )( + T3 207 ) ) )
(or ( <= ( + T3 376 )  ( + T7 290 ) ) ( <= ( + T7 383 )( + T3 287 ) ) )
(or ( <= ( + T3 403 )  ( + T7 383 ) ) ( <= ( + T7 418 )( + T3 376 ) ) )
(or ( <= ( + T3 40 ) T8 ) ( <= ( + T8 61 ) T3 ) )
(or ( <= ( + T3 51 )  ( + T8 61 ) ) ( <= ( + T8 91 )( + T3 40 ) ) )
(or ( <= ( + T3 120 )  ( + T8 91 ) ) ( <= ( + T8 145 )( + T3 51 ) ) )
(or ( <= ( + T3 149 )  ( + T8 145 ) ) ( <= ( + T8 152 )( + T3 120 ) ) )
(or ( <= ( + T3 207 )  ( + T8 152 ) ) ( <= ( + T8 200 )( + T3 149 ) ) )
(or ( <= ( + T3 287 )  ( + T8 200 ) ) ( <= ( + T8 267 )( + T3 207 ) ) )
(or ( <= ( + T3 376 )  ( + T8 267 ) ) ( <= ( + T8 268 )( + T3 287 ) ) )
(or ( <= ( + T3 403 )  ( + T8 268 ) ) ( <= ( + T8 315 )( + T3 376 ) ) )
(or ( <= ( + T3 40 ) T9 ) ( <= ( + T9 27 ) T3 ) )
(or ( <= ( + T3 51 )  ( + T9 27 ) ) ( <= ( + T9 38 )( + T3 40 ) ) )
(or ( <= ( + T3 120 )  ( + T9 38 ) ) ( <= ( + T9 109 )( + T3 51 ) ) )
(or ( <= ( + T3 149 )  ( + T9 109 ) ) ( <= ( + T9 200 )( + T3 120 ) ) )
(or ( <= ( + T3 207 )  ( + T9 200 ) ) ( <= ( + T9 246 )( + T3 149 ) ) )
(or ( <= ( + T3 287 )  ( + T9 246 ) ) ( <= ( + T9 316 )( + T3 207 ) ) )
(or ( <= ( + T3 376 )  ( + T9 316 ) ) ( <= ( + T9 409 )( + T3 287 ) ) )
(or ( <= ( + T3 403 )  ( + T9 409 ) ) ( <= ( + T9 471 )( + T3 376 ) ) )
(or ( <= ( + T3 40 ) T10 ) ( <= ( + T10 56 ) T3 ) )
(or ( <= ( + T3 51 )  ( + T10 56 ) ) ( <= ( + T10 139 )( + T3 40 ) ) )
(or ( <= ( + T3 120 )  ( + T10 139 ) ) ( <= ( + T10 232 )( + T3 51 ) ) )
(or ( <= ( + T3 149 )  ( + T10 232 ) ) ( <= ( + T10 266 )( + T3 120 ) ) )
(or ( <= ( + T3 207 )  ( + T10 266 ) ) ( <= ( + T10 296 )( + T3 149 ) ) )
(or ( <= ( + T3 287 )  ( + T10 296 ) ) ( <= ( + T10 391 )( + T3 207 ) ) )
(or ( <= ( + T3 376 )  ( + T10 391 ) ) ( <= ( + T10 443 )( + T3 287 ) ) )
(or ( <= ( + T3 403 )  ( + T10 443 ) ) ( <= ( + T10 482 )( + T3 376 ) ) )
(or ( <= ( + T4 33 ) T5 ) ( <= ( + T5 47 ) T4 ) )
(or ( <= ( + T4 103 )  ( + T5 47 ) ) ( <= ( + T5 108 )( + T4 33 ) ) )
(or ( <= ( + T4 141 )  ( + T5 108 ) ) ( <= ( + T5 118 )( + T4 103 ) ) )
(or ( <= ( + T4 161 )  ( + T5 118 ) ) ( <= ( + T5 143 )( + T4 141 ) ) )
(or ( <= ( + T4 208 )  ( + T5 143 ) ) ( <= ( + T5 155 )( + T4 161 ) ) )
(or ( <= ( + T4 227 )  ( + T5 155 ) ) ( <= ( + T5 191 )( + T4 208 ) ) )
(or ( <= ( + T4 288 )  ( + T5 191 ) ) ( <= ( + T5 239 )( + T4 227 ) ) )
(or ( <= ( + T4 331 )  ( + T5 239 ) ) ( <= ( + T5 242 )( + T4 288 ) ) )
(or ( <= ( + T4 33 ) T6 ) ( <= ( + T6 65 ) T4 ) )
(or ( <= ( + T4 103 )  ( + T6 65 ) ) ( <= ( + T6 151 )( + T4 33 ) ) )
(or ( <= ( + T4 141 )  ( + T6 151 ) ) ( <= ( + T6 190 )( + T4 103 ) ) )
(or ( <= ( + T4 161 )  ( + T6 190 ) ) ( <= ( + T6 221 )( + T4 141 ) ) )
(or ( <= ( + T4 208 )  ( + T6 221 ) ) ( <= ( + T6 300 )( + T4 161 ) ) )
(or ( <= ( + T4 227 )  ( + T6 300 ) ) ( <= ( + T6 348 )( + T4 208 ) ) )
(or ( <= ( + T4 288 )  ( + T6 348 ) ) ( <= ( + T6 399 )( + T4 227 ) ) )
(or ( <= ( + T4 331 )  ( + T6 399 ) ) ( <= ( + T6 418 )( + T4 288 ) ) )
(or ( <= ( + T4 33 ) T7 ) ( <= ( + T7 10 ) T4 ) )
(or ( <= ( + T4 103 )  ( + T7 10 ) ) ( <= ( + T7 82 )( + T4 33 ) ) )
(or ( <= ( + T4 141 )  ( + T7 82 ) ) ( <= ( + T7 181 )( + T4 103 ) ) )
(or ( <= ( + T4 161 )  ( + T7 181 ) ) ( <= ( + T7 248 )( + T4 141 ) ) )
(or ( <= ( + T4 208 )  ( + T7 248 ) ) ( <= ( + T7 251 )( + T4 161 ) ) )
(or ( <= ( + T4 227 )  ( + T7 251 ) ) ( <= ( + T7 290 )( + T4 208 ) ) )
(or ( <= ( + T4 288 )  ( + T7 290 ) ) ( <= ( + T7 383 )( + T4 227 ) ) )
(or ( <= ( + T4 331 )  ( + T7 383 ) ) ( <= ( + T7 418 )( + T4 288 ) ) )
(or ( <= ( + T4 33 ) T8 ) ( <= ( + T8 61 ) T4 ) )
(or ( <= ( + T4 103 )  ( + T8 61 ) ) ( <= ( + T8 91 )( + T4 33 ) ) )
(or ( <= ( + T4 141 )  ( + T8 91 ) ) ( <= ( + T8 145 )( + T4 103 ) ) )
(or ( <= ( + T4 161 )  ( + T8 145 ) ) ( <= ( + T8 152 )( + T4 141 ) ) )
(or ( <= ( + T4 208 )  ( + T8 152 ) ) ( <= ( + T8 200 )( + T4 161 ) ) )
(or ( <= ( + T4 227 )  ( + T8 200 ) ) ( <= ( + T8 267 )( + T4 208 ) ) )
(or ( <= ( + T4 288 )  ( + T8 267 ) ) ( <= ( + T8 268 )( + T4 227 ) ) )
(or ( <= ( + T4 331 )  ( + T8 268 ) ) ( <= ( + T8 315 )( + T4 288 ) ) )
(or ( <= ( + T4 33 ) T9 ) ( <= ( + T9 27 ) T4 ) )
(or ( <= ( + T4 103 )  ( + T9 27 ) ) ( <= ( + T9 38 )( + T4 33 ) ) )
(or ( <= ( + T4 141 )  ( + T9 38 ) ) ( <= ( + T9 109 )( + T4 103 ) ) )
(or ( <= ( + T4 161 )  ( + T9 109 ) ) ( <= ( + T9 200 )( + T4 141 ) ) )
(or ( <= ( + T4 208 )  ( + T9 200 ) ) ( <= ( + T9 246 )( + T4 161 ) ) )
(or ( <= ( + T4 227 )  ( + T9 246 ) ) ( <= ( + T9 316 )( + T4 208 ) ) )
(or ( <= ( + T4 288 )  ( + T9 316 ) ) ( <= ( + T9 409 )( + T4 227 ) ) )
(or ( <= ( + T4 331 )  ( + T9 409 ) ) ( <= ( + T9 471 )( + T4 288 ) ) )
(or ( <= ( + T4 33 ) T10 ) ( <= ( + T10 56 ) T4 ) )
(or ( <= ( + T4 103 )  ( + T10 56 ) ) ( <= ( + T10 139 )( + T4 33 ) ) )
(or ( <= ( + T4 141 )  ( + T10 139 ) ) ( <= ( + T10 232 )( + T4 103 ) ) )
(or ( <= ( + T4 161 )  ( + T10 232 ) ) ( <= ( + T10 266 )( + T4 141 ) ) )
(or ( <= ( + T4 208 )  ( + T10 266 ) ) ( <= ( + T10 296 )( + T4 161 ) ) )
(or ( <= ( + T4 227 )  ( + T10 296 ) ) ( <= ( + T10 391 )( + T4 208 ) ) )
(or ( <= ( + T4 288 )  ( + T10 391 ) ) ( <= ( + T10 443 )( + T4 227 ) ) )
(or ( <= ( + T4 331 )  ( + T10 443 ) ) ( <= ( + T10 482 )( + T4 288 ) ) )
(or ( <= ( + T5 47 ) T6 ) ( <= ( + T6 65 ) T5 ) )
(or ( <= ( + T5 108 )  ( + T6 65 ) ) ( <= ( + T6 151 )( + T5 47 ) ) )
(or ( <= ( + T5 118 )  ( + T6 151 ) ) ( <= ( + T6 190 )( + T5 108 ) ) )
(or ( <= ( + T5 143 )  ( + T6 190 ) ) ( <= ( + T6 221 )( + T5 118 ) ) )
(or ( <= ( + T5 155 )  ( + T6 221 ) ) ( <= ( + T6 300 )( + T5 143 ) ) )
(or ( <= ( + T5 191 )  ( + T6 300 ) ) ( <= ( + T6 348 )( + T5 155 ) ) )
(or ( <= ( + T5 239 )  ( + T6 348 ) ) ( <= ( + T6 399 )( + T5 191 ) ) )
(or ( <= ( + T5 242 )  ( + T6 399 ) ) ( <= ( + T6 418 )( + T5 239 ) ) )
(or ( <= ( + T5 47 ) T7 ) ( <= ( + T7 10 ) T5 ) )
(or ( <= ( + T5 108 )  ( + T7 10 ) ) ( <= ( + T7 82 )( + T5 47 ) ) )
(or ( <= ( + T5 118 )  ( + T7 82 ) ) ( <= ( + T7 181 )( + T5 108 ) ) )
(or ( <= ( + T5 143 )  ( + T7 181 ) ) ( <= ( + T7 248 )( + T5 118 ) ) )
(or ( <= ( + T5 155 )  ( + T7 248 ) ) ( <= ( + T7 251 )( + T5 143 ) ) )
(or ( <= ( + T5 191 )  ( + T7 251 ) ) ( <= ( + T7 290 )( + T5 155 ) ) )
(or ( <= ( + T5 239 )  ( + T7 290 ) ) ( <= ( + T7 383 )( + T5 191 ) ) )
(or ( <= ( + T5 242 )  ( + T7 383 ) ) ( <= ( + T7 418 )( + T5 239 ) ) )
(or ( <= ( + T5 47 ) T8 ) ( <= ( + T8 61 ) T5 ) )
(or ( <= ( + T5 108 )  ( + T8 61 ) ) ( <= ( + T8 91 )( + T5 47 ) ) )
(or ( <= ( + T5 118 )  ( + T8 91 ) ) ( <= ( + T8 145 )( + T5 108 ) ) )
(or ( <= ( + T5 143 )  ( + T8 145 ) ) ( <= ( + T8 152 )( + T5 118 ) ) )
(or ( <= ( + T5 155 )  ( + T8 152 ) ) ( <= ( + T8 200 )( + T5 143 ) ) )
(or ( <= ( + T5 191 )  ( + T8 200 ) ) ( <= ( + T8 267 )( + T5 155 ) ) )
(or ( <= ( + T5 239 )  ( + T8 267 ) ) ( <= ( + T8 268 )( + T5 191 ) ) )
(or ( <= ( + T5 242 )  ( + T8 268 ) ) ( <= ( + T8 315 )( + T5 239 ) ) )
(or ( <= ( + T5 47 ) T9 ) ( <= ( + T9 27 ) T5 ) )
(or ( <= ( + T5 108 )  ( + T9 27 ) ) ( <= ( + T9 38 )( + T5 47 ) ) )
(or ( <= ( + T5 118 )  ( + T9 38 ) ) ( <= ( + T9 109 )( + T5 108 ) ) )
(or ( <= ( + T5 143 )  ( + T9 109 ) ) ( <= ( + T9 200 )( + T5 118 ) ) )
(or ( <= ( + T5 155 )  ( + T9 200 ) ) ( <= ( + T9 246 )( + T5 143 ) ) )
(or ( <= ( + T5 191 )  ( + T9 246 ) ) ( <= ( + T9 316 )( + T5 155 ) ) )
(or ( <= ( + T5 239 )  ( + T9 316 ) ) ( <= ( + T9 409 )( + T5 191 ) ) )
(or ( <= ( + T5 242 )  ( + T9 409 ) ) ( <= ( + T9 471 )( + T5 239 ) ) )
(or ( <= ( + T5 47 ) T10 ) ( <= ( + T10 56 ) T5 ) )
(or ( <= ( + T5 108 )  ( + T10 56 ) ) ( <= ( + T10 139 )( + T5 47 ) ) )
(or ( <= ( + T5 118 )  ( + T10 139 ) ) ( <= ( + T10 232 )( + T5 108 ) ) )
(or ( <= ( + T5 143 )  ( + T10 232 ) ) ( <= ( + T10 266 )( + T5 118 ) ) )
(or ( <= ( + T5 155 )  ( + T10 266 ) ) ( <= ( + T10 296 )( + T5 143 ) ) )
(or ( <= ( + T5 191 )  ( + T10 296 ) ) ( <= ( + T10 391 )( + T5 155 ) ) )
(or ( <= ( + T5 239 )  ( + T10 391 ) ) ( <= ( + T10 443 )( + T5 191 ) ) )
(or ( <= ( + T5 242 )  ( + T10 443 ) ) ( <= ( + T10 482 )( + T5 239 ) ) )
(or ( <= ( + T6 65 ) T7 ) ( <= ( + T7 10 ) T6 ) )
(or ( <= ( + T6 151 )  ( + T7 10 ) ) ( <= ( + T7 82 )( + T6 65 ) ) )
(or ( <= ( + T6 190 )  ( + T7 82 ) ) ( <= ( + T7 181 )( + T6 151 ) ) )
(or ( <= ( + T6 221 )  ( + T7 181 ) ) ( <= ( + T7 248 )( + T6 190 ) ) )
(or ( <= ( + T6 300 )  ( + T7 248 ) ) ( <= ( + T7 251 )( + T6 221 ) ) )
(or ( <= ( + T6 348 )  ( + T7 251 ) ) ( <= ( + T7 290 )( + T6 300 ) ) )
(or ( <= ( + T6 399 )  ( + T7 290 ) ) ( <= ( + T7 383 )( + T6 348 ) ) )
(or ( <= ( + T6 418 )  ( + T7 383 ) ) ( <= ( + T7 418 )( + T6 399 ) ) )
(or ( <= ( + T6 65 ) T8 ) ( <= ( + T8 61 ) T6 ) )
(or ( <= ( + T6 151 )  ( + T8 61 ) ) ( <= ( + T8 91 )( + T6 65 ) ) )
(or ( <= ( + T6 190 )  ( + T8 91 ) ) ( <= ( + T8 145 )( + T6 151 ) ) )
(or ( <= ( + T6 221 )  ( + T8 145 ) ) ( <= ( + T8 152 )( + T6 190 ) ) )
(or ( <= ( + T6 300 )  ( + T8 152 ) ) ( <= ( + T8 200 )( + T6 221 ) ) )
(or ( <= ( + T6 348 )  ( + T8 200 ) ) ( <= ( + T8 267 )( + T6 300 ) ) )
(or ( <= ( + T6 399 )  ( + T8 267 ) ) ( <= ( + T8 268 )( + T6 348 ) ) )
(or ( <= ( + T6 418 )  ( + T8 268 ) ) ( <= ( + T8 315 )( + T6 399 ) ) )
(or ( <= ( + T6 65 ) T9 ) ( <= ( + T9 27 ) T6 ) )
(or ( <= ( + T6 151 )  ( + T9 27 ) ) ( <= ( + T9 38 )( + T6 65 ) ) )
(or ( <= ( + T6 190 )  ( + T9 38 ) ) ( <= ( + T9 109 )( + T6 151 ) ) )
(or ( <= ( + T6 221 )  ( + T9 109 ) ) ( <= ( + T9 200 )( + T6 190 ) ) )
(or ( <= ( + T6 300 )  ( + T9 200 ) ) ( <= ( + T9 246 )( + T6 221 ) ) )
(or ( <= ( + T6 348 )  ( + T9 246 ) ) ( <= ( + T9 316 )( + T6 300 ) ) )
(or ( <= ( + T6 399 )  ( + T9 316 ) ) ( <= ( + T9 409 )( + T6 348 ) ) )
(or ( <= ( + T6 418 )  ( + T9 409 ) ) ( <= ( + T9 471 )( + T6 399 ) ) )
(or ( <= ( + T6 65 ) T10 ) ( <= ( + T10 56 ) T6 ) )
(or ( <= ( + T6 151 )  ( + T10 56 ) ) ( <= ( + T10 139 )( + T6 65 ) ) )
(or ( <= ( + T6 190 )  ( + T10 139 ) ) ( <= ( + T10 232 )( + T6 151 ) ) )
(or ( <= ( + T6 221 )  ( + T10 232 ) ) ( <= ( + T10 266 )( + T6 190 ) ) )
(or ( <= ( + T6 300 )  ( + T10 266 ) ) ( <= ( + T10 296 )( + T6 221 ) ) )
(or ( <= ( + T6 348 )  ( + T10 296 ) ) ( <= ( + T10 391 )( + T6 300 ) ) )
(or ( <= ( + T6 399 )  ( + T10 391 ) ) ( <= ( + T10 443 )( + T6 348 ) ) )
(or ( <= ( + T6 418 )  ( + T10 443 ) ) ( <= ( + T10 482 )( + T6 399 ) ) )
(or ( <= ( + T7 10 ) T8 ) ( <= ( + T8 61 ) T7 ) )
(or ( <= ( + T7 82 )  ( + T8 61 ) ) ( <= ( + T8 91 )( + T7 10 ) ) )
(or ( <= ( + T7 181 )  ( + T8 91 ) ) ( <= ( + T8 145 )( + T7 82 ) ) )
(or ( <= ( + T7 248 )  ( + T8 145 ) ) ( <= ( + T8 152 )( + T7 181 ) ) )
(or ( <= ( + T7 251 )  ( + T8 152 ) ) ( <= ( + T8 200 )( + T7 248 ) ) )
(or ( <= ( + T7 290 )  ( + T8 200 ) ) ( <= ( + T8 267 )( + T7 251 ) ) )
(or ( <= ( + T7 383 )  ( + T8 267 ) ) ( <= ( + T8 268 )( + T7 290 ) ) )
(or ( <= ( + T7 418 )  ( + T8 268 ) ) ( <= ( + T8 315 )( + T7 383 ) ) )
(or ( <= ( + T7 10 ) T9 ) ( <= ( + T9 27 ) T7 ) )
(or ( <= ( + T7 82 )  ( + T9 27 ) ) ( <= ( + T9 38 )( + T7 10 ) ) )
(or ( <= ( + T7 181 )  ( + T9 38 ) ) ( <= ( + T9 109 )( + T7 82 ) ) )
(or ( <= ( + T7 248 )  ( + T9 109 ) ) ( <= ( + T9 200 )( + T7 181 ) ) )
(or ( <= ( + T7 251 )  ( + T9 200 ) ) ( <= ( + T9 246 )( + T7 248 ) ) )
(or ( <= ( + T7 290 )  ( + T9 246 ) ) ( <= ( + T9 316 )( + T7 251 ) ) )
(or ( <= ( + T7 383 )  ( + T9 316 ) ) ( <= ( + T9 409 )( + T7 290 ) ) )
(or ( <= ( + T7 418 )  ( + T9 409 ) ) ( <= ( + T9 471 )( + T7 383 ) ) )
(or ( <= ( + T7 10 ) T10 ) ( <= ( + T10 56 ) T7 ) )
(or ( <= ( + T7 82 )  ( + T10 56 ) ) ( <= ( + T10 139 )( + T7 10 ) ) )
(or ( <= ( + T7 181 )  ( + T10 139 ) ) ( <= ( + T10 232 )( + T7 82 ) ) )
(or ( <= ( + T7 248 )  ( + T10 232 ) ) ( <= ( + T10 266 )( + T7 181 ) ) )
(or ( <= ( + T7 251 )  ( + T10 266 ) ) ( <= ( + T10 296 )( + T7 248 ) ) )
(or ( <= ( + T7 290 )  ( + T10 296 ) ) ( <= ( + T10 391 )( + T7 251 ) ) )
(or ( <= ( + T7 383 )  ( + T10 391 ) ) ( <= ( + T10 443 )( + T7 290 ) ) )
(or ( <= ( + T7 418 )  ( + T10 443 ) ) ( <= ( + T10 482 )( + T7 383 ) ) )
(or ( <= ( + T8 61 ) T9 ) ( <= ( + T9 27 ) T8 ) )
(or ( <= ( + T8 91 )  ( + T9 27 ) ) ( <= ( + T9 38 )( + T8 61 ) ) )
(or ( <= ( + T8 145 )  ( + T9 38 ) ) ( <= ( + T9 109 )( + T8 91 ) ) )
(or ( <= ( + T8 152 )  ( + T9 109 ) ) ( <= ( + T9 200 )( + T8 145 ) ) )
(or ( <= ( + T8 200 )  ( + T9 200 ) ) ( <= ( + T9 246 )( + T8 152 ) ) )
(or ( <= ( + T8 267 )  ( + T9 246 ) ) ( <= ( + T9 316 )( + T8 200 ) ) )
(or ( <= ( + T8 268 )  ( + T9 316 ) ) ( <= ( + T9 409 )( + T8 267 ) ) )
(or ( <= ( + T8 315 )  ( + T9 409 ) ) ( <= ( + T9 471 )( + T8 268 ) ) )
(or ( <= ( + T8 61 ) T10 ) ( <= ( + T10 56 ) T8 ) )
(or ( <= ( + T8 91 )  ( + T10 56 ) ) ( <= ( + T10 139 )( + T8 61 ) ) )
(or ( <= ( + T8 145 )  ( + T10 139 ) ) ( <= ( + T10 232 )( + T8 91 ) ) )
(or ( <= ( + T8 152 )  ( + T10 232 ) ) ( <= ( + T10 266 )( + T8 145 ) ) )
(or ( <= ( + T8 200 )  ( + T10 266 ) ) ( <= ( + T10 296 )( + T8 152 ) ) )
(or ( <= ( + T8 267 )  ( + T10 296 ) ) ( <= ( + T10 391 )( + T8 200 ) ) )
(or ( <= ( + T8 268 )  ( + T10 391 ) ) ( <= ( + T10 443 )( + T8 267 ) ) )
(or ( <= ( + T8 315 )  ( + T10 443 ) ) ( <= ( + T10 482 )( + T8 268 ) ) )
(or ( <= ( + T9 27 ) T10 ) ( <= ( + T10 56 ) T9 ) )
(or ( <= ( + T9 38 )  ( + T10 56 ) ) ( <= ( + T10 139 )( + T9 27 ) ) )
(or ( <= ( + T9 109 )  ( + T10 139 ) ) ( <= ( + T10 232 )( + T9 38 ) ) )
(or ( <= ( + T9 200 )  ( + T10 232 ) ) ( <= ( + T10 266 )( + T9 109 ) ) )
(or ( <= ( + T9 246 )  ( + T10 266 ) ) ( <= ( + T10 296 )( + T9 200 ) ) )
(or ( <= ( + T9 316 )  ( + T10 296 ) ) ( <= ( + T10 391 )( + T9 246 ) ) )
(or ( <= ( + T9 409 )  ( + T10 391 ) ) ( <= ( + T10 443 )( + T9 316 ) ) )
(or ( <= ( + T9 471 )  ( + T10 443 ) ) ( <= ( + T10 482 )( + T9 409 ) ) )
( <= ( + T1 466 ) Z)
( <= ( + T2 433 ) Z)
( <= ( + T3 403 ) Z)
( <= ( + T4 331 ) Z)
( <= ( + T5 242 ) Z)
( <= ( + T6 418 ) Z)
( <= ( + T7 418 ) Z)
( <= ( + T8 315 ) Z)
( <= ( + T9 471 ) Z)
( <= ( + T10 482 ) Z)
( >= T1 0 )
( >= T2 0 )
( >= T3 0 )
( >= T4 0 )
( >= T5 0 )
( >= T6 0 )
( >= T7 0 )
( >= T8 0 )
( >= T9 0 )
( >= T10 0 )
) )
(minimize Z)
(check-sat)